50
10641

294 941
931 243
162 340
642 467
738 791
853 683
560 168
180 95
397 102
411 825
243 715
703 606
171 199
9 742
562 239
94 785
694 427
320 613
38 4
581 909
828 326
28 94
265 912
756 667
166 550
191 831
204 565
514 988
505 923
549 677
912 224
829 775
527 39
882 166
268 340
671 435
138 4
128 510
735 589
431 657
256 457
872 868
182 3
225 653
938 879
845 565
458 570
157 559
689 164
679 28
